data;
param nombreJob := 6;
param nombreRessource := 3;
param duree := 1 9 2 8 3 1 4 4 5 7 6 2;
param capaciteRessource := 1 6 2 15 3 10;
param besoinRessource : 1 2 3 :=
                    1   4 3 5
                    2   2 7 7
                    3   4 4 6
                    4   4 2 7
                    5   3 5 9
                    6   3 5 2;
end;

